(set-logic QF_LIA)
(declare-fun x0 () Int)
(declare-fun x1 () Int)
(declare-fun x2 () Int)
(declare-fun x3 () Int)
(declare-fun x4 () Int)
(declare-fun x5 () Int)
(declare-fun x6 () Int)
(declare-fun x7 () Int)
(declare-fun x8 () Int)
(declare-fun x9 () Int)
(declare-fun A0 () Bool)
(declare-fun A1 () Bool)
(declare-fun A2 () Bool)
(declare-fun A3 () Bool)
(declare-fun A4 () Bool)
(declare-fun A5 () Bool)
(declare-fun A6 () Bool)
(declare-fun A7 () Bool)
(declare-fun A8 () Bool)
(declare-fun A9 () Bool)
(assert (let ((.def_0 (* 1 x0))) (let ((.def_1 (< .def_0 (- 1)))) (let ((.def_2 (not .def_1))) (let ((.def_3 (or .def_2 A1))) (let ((.def_4 (and A8 A6))) (let ((.def_5 (not .def_4))) (let ((.def_6 (and .def_5 .def_3))) (let ((.def_7 (not .def_6))) (let ((.def_8 (not A6))) (let ((.def_9 (* 1 x8))) (let ((.def_10 (* (- 1) x2))) (let ((.def_11 (+ .def_10 .def_9))) (let ((.def_12 (< .def_11 (- 1)))) (let ((.def_13 (and .def_12 .def_8))) (let ((.def_14 (not A7))) (let ((.def_15 (or A4 .def_14))) (let ((.def_16 (or .def_15 .def_13))) (let ((.def_17 (not .def_16))) (let ((.def_18 (and .def_17 .def_7))) (let ((.def_19 (not A0))) (let ((.def_20 (= .def_19 .def_14))) (let ((.def_21 (not .def_20))) (let ((.def_22 (* (- 1) x8))) (let ((.def_23 (* 1 x6))) (let ((.def_24 (+ .def_23 .def_22))) (let ((.def_25 (< .def_24 1))) (let ((.def_26 (not .def_25))) (let ((.def_27 (and .def_26 A4))) (let ((.def_28 (and .def_27 .def_21))) (let ((.def_29 (* 1 x3))) (let ((.def_30 (* (- 1) x7))) (let ((.def_31 (+ .def_30 .def_29))) (let ((.def_32 (< .def_31 1))) (let ((.def_33 (* (- 1) x5))) (let ((.def_34 (* 1 x1))) (let ((.def_35 (+ .def_34 .def_33))) (let ((.def_36 (< .def_35 1))) (let ((.def_37 (not .def_36))) (let ((.def_38 (and .def_37 .def_32))) (let ((.def_39 (not .def_38))) (let ((.def_40 (* (- 1) x0))) (let ((.def_41 (< .def_40 1))) (let ((.def_42 (not .def_41))) (let ((.def_43 (and A8 .def_42))) (let ((.def_44 (not .def_43))) (let ((.def_45 (and .def_44 .def_39))) (let ((.def_46 (and .def_45 .def_28))) (let ((.def_47 (not .def_46))) (let ((.def_48 (or .def_47 .def_18))) (let ((.def_49 (+ .def_40 .def_22))) (let ((.def_50 (< .def_49 1))) (let ((.def_51 (or .def_19 .def_50))) (let ((.def_52 (* 1 x7))) (let ((.def_53 (< .def_52 1))) (let ((.def_54 (not .def_53))) (let ((.def_55 (< .def_33 1))) (let ((.def_56 (not .def_55))) (let ((.def_57 (and .def_56 .def_54))) (let ((.def_58 (and .def_57 .def_51))) (let ((.def_59 (< .def_22 1))) (let ((.def_60 (not .def_59))) (let ((.def_61 (and A1 .def_60))) (let ((.def_62 (* 1 x9))) (let ((.def_63 (+ .def_9 .def_62))) (let ((.def_64 (< .def_63 1))) (let ((.def_65 (< .def_10 1))) (let ((.def_66 (or .def_65 .def_64))) (let ((.def_67 (or .def_66 .def_61))) (let ((.def_68 (and .def_67 .def_58))) (let ((.def_69 (not .def_68))) (let ((.def_70 (* (- 1) x9))) (let ((.def_71 (< .def_70 1))) (let ((.def_72 (not .def_71))) (let ((.def_73 (= .def_72 A3))) (let ((.def_74 (not .def_73))) (let ((.def_75 (* 1 x4))) (let ((.def_76 (+ .def_75 .def_10))) (let ((.def_77 (< .def_76 (- 1)))) (let ((.def_78 (or .def_77 A7))) (let ((.def_79 (or .def_78 .def_74))) (let ((.def_80 (not .def_79))) (let ((.def_81 (not A1))) (let ((.def_82 (* 1 x5))) (let ((.def_83 (< .def_82 (- 1)))) (let ((.def_84 (and .def_83 .def_81))) (let ((.def_85 (not .def_84))) (let ((.def_86 (not A2))) (let ((.def_87 (not A4))) (let ((.def_88 (or .def_87 .def_86))) (let ((.def_89 (or .def_88 .def_85))) (let ((.def_90 (not .def_89))) (let ((.def_91 (or .def_90 .def_80))) (let ((.def_92 (or .def_91 .def_69))) (let ((.def_93 (and .def_92 .def_48))) (let ((.def_94 (not A5))) (let ((.def_95 (* (- 1) x3))) (let ((.def_96 (+ .def_70 .def_95))) (let ((.def_97 (< .def_96 (- 1)))) (let ((.def_98 (not .def_97))) (let ((.def_99 (or .def_98 .def_94))) (let ((.def_100 (not .def_99))) (let ((.def_101 (and A9 .def_14))) (let ((.def_102 (and .def_101 .def_100))) (let ((.def_103 (< .def_70 (- 1)))) (let ((.def_104 (not .def_103))) (let ((.def_105 (* (- 1) x6))) (let ((.def_106 (< .def_105 (- 1)))) (let ((.def_107 (not .def_106))) (let ((.def_108 (or .def_107 .def_104))) (let ((.def_109 (not .def_108))) (let ((.def_110 (or A1 A8))) (let ((.def_111 (and .def_110 .def_109))) (let ((.def_112 (or .def_111 .def_102))) (let ((.def_113 (* 1 x2))) (let ((.def_114 (+ .def_113 .def_82))) (let ((.def_115 (< .def_114 1))) (let ((.def_116 (and .def_72 .def_115))) (let ((.def_117 (not .def_65))) (let ((.def_118 (not A9))) (let ((.def_119 (or .def_118 .def_117))) (let ((.def_120 (and .def_119 .def_116))) (let ((.def_121 (not .def_120))) (let ((.def_122 (+ .def_9 .def_23))) (let ((.def_123 (< .def_122 1))) (let ((.def_124 (not .def_123))) (let ((.def_125 (and .def_124 .def_94))) (let ((.def_126 (not A8))) (let ((.def_127 (or .def_126 .def_94))) (let ((.def_128 (or .def_127 .def_125))) (let ((.def_129 (not .def_128))) (let ((.def_130 (and .def_129 .def_121))) (let ((.def_131 (= .def_130 .def_112))) (let ((.def_132 (not .def_131))) (let ((.def_133 (< .def_22 (- 1)))) (let ((.def_134 (not .def_133))) (let ((.def_135 (+ .def_10 .def_0))) (let ((.def_136 (< .def_135 (- 1)))) (let ((.def_137 (and .def_136 .def_134))) (let ((.def_138 (not .def_137))) (let ((.def_139 (and .def_81 .def_14))) (let ((.def_140 (or .def_139 .def_138))) (let ((.def_141 (or .def_133 .def_19))) (let ((.def_142 (not .def_141))) (let ((.def_143 (or A5 A8))) (let ((.def_144 (or .def_143 .def_142))) (let ((.def_145 (not .def_144))) (let ((.def_146 (or .def_145 .def_140))) (let ((.def_147 (+ .def_22 .def_33))) (let ((.def_148 (< .def_147 1))) (let ((.def_149 (not .def_148))) (let ((.def_150 (or .def_149 A5))) (let ((.def_151 (not .def_150))) (let ((.def_152 (and A8 A8))) (let ((.def_153 (= .def_152 .def_151))) (let ((.def_154 (not .def_153))) (let ((.def_155 (< .def_9 (- 1)))) (let ((.def_156 (not .def_155))) (let ((.def_157 (not A3))) (let ((.def_158 (or .def_157 .def_156))) (let ((.def_159 (and A5 .def_81))) (let ((.def_160 (not .def_159))) (let ((.def_161 (or .def_160 .def_158))) (let ((.def_162 (and .def_161 .def_154))) (let ((.def_163 (and .def_162 .def_146))) (let ((.def_164 (not .def_163))) (let ((.def_165 (and .def_164 .def_132))) (let ((.def_166 (or .def_165 .def_93))) (let ((.def_167 (<= x9 1))) (let ((.def_168 (<= 0 x9))) (let ((.def_169 (<= x8 1))) (let ((.def_170 (<= 0 x8))) (let ((.def_171 (<= x7 1))) (let ((.def_172 (<= 0 x7))) (let ((.def_173 (<= x6 1))) (let ((.def_174 (<= 0 x6))) (let ((.def_175 (<= x5 1))) (let ((.def_176 (<= 0 x5))) (let ((.def_177 (<= x4 1))) (let ((.def_178 (<= 0 x4))) (let ((.def_179 (<= x3 1))) (let ((.def_180 (<= 0 x3))) (let ((.def_181 (<= x2 1))) (let ((.def_182 (<= 0 x2))) (let ((.def_183 (<= x1 1))) (let ((.def_184 (<= 0 x1))) (let ((.def_185 (<= x0 1))) (let ((.def_186 (<= 0 x0))) (let ((.def_187 (and .def_186 .def_185 .def_184 .def_183 .def_182 .def_181 .def_180 .def_179 .def_178 .def_177 .def_176 .def_175 .def_174 .def_173 .def_172 .def_171 .def_170 .def_169 .def_168 .def_167 .def_166))) .def_187)))))))))))))))))))))))))))))))))))))))))))))))))))))))))))))))))))))))))))))))))))))))))))))))))))))))))))))))))))))))))))))))))))))))))))))))))))))))))))))))))))))))))))))))))))))))))))))
(check-sat)
